param numColors := 3;
param numNodes := 12;

set edgeList := 
(0,1)
(1,0)
(1,2)
(1,4)
(1,7)
(1,9)
(2,1)
(2,3)
(2,6)
(2,8)
(3,2)
(3,5)
(3,7)
(3,10)
(4,1)
(4,5)
(4,6)
(4,10)
(5,3)
(5,4)
(5,8)
(5,9)
(6,2)
(6,4)
(6,11)
(7,1)
(7,3)
(7,11)
(8,2)
(8,5)
(8,11)
(9,1)
(9,5)
(9,11)
(10,3)
(10,4)
(10,11)
(11,6)
(11,7)
(11,8)
(11,9)
(11,10)
;

